; PUSH cw_3 PUSH cw_4 PUSH cw_3 SWAP1 SLOAD SWAP1 => PUSH cw_3 PUSH cw_4 SLOAD DUP2
(set-option :produce-proofs true)
; 
(set-info :status unknown)
(declare-fun storage_t ((_ BitVec 256) (_ BitVec 256) (_ BitVec 256) Int (_ BitVec 256)) (_ BitVec 256))
(declare-fun w_4 () (_ BitVec 256))
(declare-fun w_3 () (_ BitVec 256))
(declare-fun storage_s ((_ BitVec 256) (_ BitVec 256) (_ BitVec 256) Int (_ BitVec 256)) (_ BitVec 256))
(declare-fun exc_halt_t (Int) Bool)
(declare-fun exc_halt_s (Int) Bool)
(declare-fun stack_t ((_ BitVec 256) (_ BitVec 256) (_ BitVec 256) Int (_ BitVec 6)) (_ BitVec 256))
(declare-fun stack_s ((_ BitVec 256) (_ BitVec 256) (_ BitVec 256) Int (_ BitVec 6)) (_ BitVec 256))
(declare-fun sc_t (Int) (_ BitVec 6))
(declare-fun sc_s (Int) (_ BitVec 6))
(declare-fun used_gas_t ((_ BitVec 256) (_ BitVec 256) (_ BitVec 256) Int) Int)
(declare-fun used_gas_s ((_ BitVec 256) (_ BitVec 256) (_ BitVec 256) Int) Int)
(assert
 (exists ((x_SLOAD_0 (_ BitVec 256)) )(let (($x6277 (forall ((w (_ BitVec 256)) )(let ((?x3051 (storage_t x_SLOAD_0 w_3 w_4 4 w)))
 (let ((?x8060 (storage_s x_SLOAD_0 w_3 w_4 6 w)))
 (= ?x8060 ?x3051))))
 ))
 (let (($x7854 (exc_halt_t 4)))
 (let (($x7121 (exc_halt_s 6)))
 (let (($x7607 (= $x7121 $x7854)))
 (let (($x9340 (forall ((n (_ BitVec 6)) )(let ((?x1443 (stack_t x_SLOAD_0 w_3 w_4 4 n)))
 (let ((?x7841 (stack_s x_SLOAD_0 w_3 w_4 6 n)))
 (let (($x8116 (= ?x7841 ?x1443)))
 (let ((?x7495 (sc_t 4)))
 (let (($x3540 (bvsle ?x7495 n)))
 (or $x3540 $x8116)))))))
 ))
 (let ((?x7495 (sc_t 4)))
 (let ((?x9114 (sc_s 6)))
 (let (($x7396 (= ?x9114 ?x7495)))
 (let ((?x11155 (used_gas_t x_SLOAD_0 w_3 w_4 0)))
 (let ((?x4083 (used_gas_s x_SLOAD_0 w_3 w_4 0)))
 (let (($x8226 (= ?x4083 ?x11155)))
 (let (($x4493 (forall ((w (_ BitVec 256)) )(let ((?x5350 (storage_t x_SLOAD_0 w_3 w_4 0 w)))
 (let ((?x5967 (storage_s x_SLOAD_0 w_3 w_4 0 w)))
 (= ?x5967 ?x5350))))
 ))
 (let (($x56 (exc_halt_t 0)))
 (let (($x57 (exc_halt_s 0)))
 (let (($x58 (= $x57 $x56)))
 (let (($x7449 (forall ((n (_ BitVec 6)) )(let ((?x63 (sc_t 0)))
 (let (($x11416 (bvsle ?x63 n)))
 (let ((?x5863 (stack_t x_SLOAD_0 w_3 w_4 0 n)))
 (let ((?x3215 (stack_s x_SLOAD_0 w_3 w_4 0 n)))
 (let (($x997 (= ?x3215 ?x5863)))
 (or $x997 $x11416)))))))
 ))
 (let ((?x63 (sc_t 0)))
 (let ((?x72 (sc_s 0)))
 (let (($x73 (= ?x72 ?x63)))
 (let (($x9712 (exc_halt_t 3)))
 (let (($x1388 (not (= ((_ extract 6 6) (bvadd (_ bv1 7) (concat (_ bv0 1) (sc_t 3)))) (_ bv0 1)))))
 (let (($x6557 (= $x7854 (or $x1388 $x9712 (not (bvsle (_ bv0 6) (bvadd (_ bv62 6) (sc_t 3))))))))
 (let (($x2106 (forall ((w (_ BitVec 256)) )(let ((?x11455 (storage_t x_SLOAD_0 w_3 w_4 3 w)))
 (let ((?x3051 (storage_t x_SLOAD_0 w_3 w_4 4 w)))
 (= ?x3051 ?x11455))))
 ))
 (let (($x11798 (forall ((n (_ BitVec 6)) )(let ((?x3030 (stack_t x_SLOAD_0 w_3 w_4 3 n)))
 (let ((?x1443 (stack_t x_SLOAD_0 w_3 w_4 4 n)))
 (let ((?x6754 (sc_t 3)))
 (let ((?x90 (bvadd (_ bv62 6) ?x6754)))
 (let (($x4308 (bvsle ?x90 n)))
 (or $x4308 (= ?x1443 ?x3030))))))))
 ))
 (let (($x4149 (= ?x7495 (bvadd (_ bv1 6) (sc_t 3)))))
 (let (($x4743 (= (used_gas_t x_SLOAD_0 w_3 w_4 4) (+ 3 (used_gas_t x_SLOAD_0 w_3 w_4 3)))))
 (let ((?x6754 (sc_t 3)))
 (let ((?x7779 (bvadd (_ bv63 6) ?x6754)))
 (let ((?x919 (stack_t x_SLOAD_0 w_3 w_4 3 ?x7779)))
 (let ((?x90 (bvadd (_ bv62 6) ?x6754)))
 (let ((?x10919 (stack_t x_SLOAD_0 w_3 w_4 3 ?x90)))
 (let (($x914 (= $x9712 (or (exc_halt_t 2) (not (bvsle (_ bv0 6) (bvadd (_ bv63 6) (sc_t 2))))))))
 (let (($x8321 (forall ((w (_ BitVec 256)) )(let ((?x9382 (storage_t x_SLOAD_0 w_3 w_4 2 w)))
 (let ((?x11455 (storage_t x_SLOAD_0 w_3 w_4 3 w)))
 (= ?x11455 ?x9382))))
 ))
 (let (($x470 (forall ((n (_ BitVec 6)) )(let ((?x6568 (stack_t x_SLOAD_0 w_3 w_4 2 n)))
 (let ((?x3030 (stack_t x_SLOAD_0 w_3 w_4 3 n)))
 (let ((?x11248 (sc_t 2)))
 (let ((?x4957 (bvadd (_ bv63 6) ?x11248)))
 (let (($x1369 (bvsle ?x4957 n)))
 (or $x1369 (= ?x3030 ?x6568))))))))
 ))
 (let ((?x11248 (sc_t 2)))
 (let (($x7578 (= ?x6754 ?x11248)))
 (let ((?x4362 (used_gas_t x_SLOAD_0 w_3 w_4 3)))
 (let ((?x1063 (storage_t x_SLOAD_0 w_3 w_4 2 (stack_t x_SLOAD_0 w_3 w_4 2 (bvadd (_ bv63 6) ?x11248)))))
 (let (($x2872 (not (= ((_ extract 6 6) (bvadd (_ bv1 7) (concat (_ bv0 1) (sc_t 1)))) (_ bv0 1)))))
 (let (($x4852 (exc_halt_t 1)))
 (let (($x5995 (exc_halt_t 2)))
 (let (($x6840 (= $x5995 (or $x4852 $x2872))))
 (let (($x11064 (forall ((w (_ BitVec 256)) )(let ((?x5666 (storage_t x_SLOAD_0 w_3 w_4 1 w)))
 (let ((?x9382 (storage_t x_SLOAD_0 w_3 w_4 2 w)))
 (= ?x9382 ?x5666))))
 ))
 (let (($x9896 (forall ((n (_ BitVec 6)) )(let ((?x11301 (stack_t x_SLOAD_0 w_3 w_4 1 n)))
 (let ((?x6568 (stack_t x_SLOAD_0 w_3 w_4 2 n)))
 (let ((?x9666 (sc_t 1)))
 (let (($x655 (bvsle ?x9666 n)))
 (or $x655 (= ?x6568 ?x11301)))))))
 ))
 (let (($x2990 (= ?x11248 (bvadd (_ bv1 6) (sc_t 1)))))
 (let ((?x7597 (used_gas_t x_SLOAD_0 w_3 w_4 2)))
 (let (($x11249 (= $x4852 (or $x56 (not (= ((_ extract 6 6) (bvadd (_ bv1 7) (concat (_ bv0 1) ?x63))) (_ bv0 1)))))))
 (let (($x11233 (forall ((w (_ BitVec 256)) )(let ((?x5350 (storage_t x_SLOAD_0 w_3 w_4 0 w)))
 (let ((?x5666 (storage_t x_SLOAD_0 w_3 w_4 1 w)))
 (= ?x5666 ?x5350))))
 ))
 (let (($x7881 (forall ((n (_ BitVec 6)) )(let ((?x63 (sc_t 0)))
 (let (($x11416 (bvsle ?x63 n)))
 (let ((?x5863 (stack_t x_SLOAD_0 w_3 w_4 0 n)))
 (let ((?x11301 (stack_t x_SLOAD_0 w_3 w_4 1 n)))
 (or (= ?x11301 ?x5863) $x11416))))))
 ))
 (let ((?x9666 (sc_t 1)))
 (let (($x6587 (= ?x9666 (bvadd (_ bv1 6) ?x63))))
 (let (($x5799 (= $x7121 (or (exc_halt_s 5) (not (bvsle (_ bv0 6) (bvadd (_ bv62 6) (sc_s 5))))))))
 (let (($x9133 (forall ((w (_ BitVec 256)) )(let ((?x3034 (storage_s x_SLOAD_0 w_3 w_4 5 w)))
 (let ((?x8060 (storage_s x_SLOAD_0 w_3 w_4 6 w)))
 (= ?x8060 ?x3034))))
 ))
 (let (($x6121 (forall ((n (_ BitVec 6)) )(let ((?x4319 (sc_s 5)))
 (let ((?x6307 (bvadd (_ bv62 6) ?x4319)))
 (let (($x9691 (bvsle ?x6307 n)))
 (let ((?x9413 (stack_s x_SLOAD_0 w_3 w_4 5 n)))
 (let ((?x7841 (stack_s x_SLOAD_0 w_3 w_4 6 n)))
 (or (= ?x7841 ?x9413) $x9691)))))))
 ))
 (let ((?x4319 (sc_s 5)))
 (let (($x455 (= ?x9114 ?x4319)))
 (let (($x111 (= (used_gas_s x_SLOAD_0 w_3 w_4 6) (+ 3 (used_gas_s x_SLOAD_0 w_3 w_4 5)))))
 (let ((?x1254 (bvadd (_ bv63 6) ?x4319)))
 (let ((?x1270 (stack_s x_SLOAD_0 w_3 w_4 5 ?x1254)))
 (let (($x5619 (= (stack_s x_SLOAD_0 w_3 w_4 6 (bvadd (_ bv63 6) ?x9114)) (stack_s x_SLOAD_0 w_3 w_4 5 (bvadd (_ bv62 6) ?x4319)))))
 (let (($x1862 (exc_halt_s 5)))
 (let (($x10092 (= $x1862 (or (exc_halt_s 4) (not (bvsle (_ bv0 6) (bvadd (_ bv63 6) (sc_s 4))))))))
 (let (($x3432 (forall ((w (_ BitVec 256)) )(let ((?x4320 (storage_s x_SLOAD_0 w_3 w_4 4 w)))
 (let ((?x3034 (storage_s x_SLOAD_0 w_3 w_4 5 w)))
 (= ?x3034 ?x4320))))
 ))
 (let (($x3230 (forall ((n (_ BitVec 6)) )(let ((?x9433 (sc_s 4)))
 (let ((?x1013 (bvadd (_ bv63 6) ?x9433)))
 (let (($x7310 (bvsle ?x1013 n)))
 (let ((?x3374 (stack_s x_SLOAD_0 w_3 w_4 4 n)))
 (let ((?x9413 (stack_s x_SLOAD_0 w_3 w_4 5 n)))
 (or (= ?x9413 ?x3374) $x7310)))))))
 ))
 (let ((?x9433 (sc_s 4)))
 (let (($x8512 (= ?x4319 ?x9433)))
 (let ((?x6621 (used_gas_s x_SLOAD_0 w_3 w_4 5)))
 (let ((?x1013 (bvadd (_ bv63 6) ?x9433)))
 (let ((?x4158 (stack_s x_SLOAD_0 w_3 w_4 4 ?x1013)))
 (let (($x9175 (exc_halt_s 4)))
 (let (($x5977 (= $x9175 (or (exc_halt_s 3) (not (bvsle (_ bv0 6) (bvadd (_ bv62 6) (sc_s 3))))))))
 (let (($x2624 (forall ((w (_ BitVec 256)) )(let ((?x2538 (storage_s x_SLOAD_0 w_3 w_4 3 w)))
 (let ((?x4320 (storage_s x_SLOAD_0 w_3 w_4 4 w)))
 (= ?x4320 ?x2538))))
 ))
 (let (($x4327 (forall ((n (_ BitVec 6)) )(let ((?x3851 (sc_s 3)))
 (let ((?x4699 (bvadd (_ bv62 6) ?x3851)))
 (let (($x8206 (bvsle ?x4699 n)))
 (let ((?x7882 (stack_s x_SLOAD_0 w_3 w_4 3 n)))
 (let ((?x3374 (stack_s x_SLOAD_0 w_3 w_4 4 n)))
 (or (= ?x3374 ?x7882) $x8206)))))))
 ))
 (let ((?x3851 (sc_s 3)))
 (let (($x3035 (= ?x9433 ?x3851)))
 (let ((?x5339 (used_gas_s x_SLOAD_0 w_3 w_4 4)))
 (let (($x5706 (= (stack_s x_SLOAD_0 w_3 w_4 4 (bvadd (_ bv62 6) ?x9433)) (stack_s x_SLOAD_0 w_3 w_4 3 (bvadd (_ bv63 6) ?x3851)))))
 (let (($x10299 (not (= ((_ extract 6 6) (bvadd (_ bv1 7) (concat (_ bv0 1) (sc_s 2)))) (_ bv0 1)))))
 (let (($x10052 (exc_halt_s 2)))
 (let (($x8103 (exc_halt_s 3)))
 (let (($x11481 (= $x8103 (or $x10052 $x10299))))
 (let (($x7687 (forall ((w (_ BitVec 256)) )(let ((?x9558 (storage_s x_SLOAD_0 w_3 w_4 2 w)))
 (let ((?x2538 (storage_s x_SLOAD_0 w_3 w_4 3 w)))
 (= ?x2538 ?x9558))))
 ))
 (let (($x10398 (forall ((n (_ BitVec 6)) )(let ((?x8559 (stack_s x_SLOAD_0 w_3 w_4 2 n)))
 (let ((?x7882 (stack_s x_SLOAD_0 w_3 w_4 3 n)))
 (let ((?x2272 (sc_s 2)))
 (let (($x1244 (bvsle ?x2272 n)))
 (or $x1244 (= ?x7882 ?x8559)))))))
 ))
 (let (($x9622 (= ?x3851 (bvadd (_ bv1 6) (sc_s 2)))))
 (let ((?x422 (used_gas_s x_SLOAD_0 w_3 w_4 3)))
 (let (($x5084 (not (= ((_ extract 6 6) (bvadd (_ bv1 7) (concat (_ bv0 1) (sc_s 1)))) (_ bv0 1)))))
 (let (($x8780 (exc_halt_s 1)))
 (let (($x5077 (= $x10052 (or $x8780 $x5084))))
 (let (($x1760 (forall ((w (_ BitVec 256)) )(let ((?x7592 (storage_s x_SLOAD_0 w_3 w_4 1 w)))
 (let ((?x9558 (storage_s x_SLOAD_0 w_3 w_4 2 w)))
 (= ?x9558 ?x7592))))
 ))
 (let (($x8139 (forall ((n (_ BitVec 6)) )(let ((?x154 (sc_s 1)))
 (let (($x5529 (bvsle ?x154 n)))
 (let ((?x2587 (stack_s x_SLOAD_0 w_3 w_4 1 n)))
 (let ((?x8559 (stack_s x_SLOAD_0 w_3 w_4 2 n)))
 (or (= ?x8559 ?x2587) $x5529))))))
 ))
 (let ((?x2272 (sc_s 2)))
 (let (($x7089 (= ?x2272 (bvadd (_ bv1 6) (sc_s 1)))))
 (let ((?x8222 (used_gas_s x_SLOAD_0 w_3 w_4 2)))
 (let (($x1756 (= $x8780 (or $x57 (not (= ((_ extract 6 6) (bvadd (_ bv1 7) (concat (_ bv0 1) ?x72))) (_ bv0 1)))))))
 (let (($x10058 (forall ((w (_ BitVec 256)) )(let ((?x5967 (storage_s x_SLOAD_0 w_3 w_4 0 w)))
 (let ((?x7592 (storage_s x_SLOAD_0 w_3 w_4 1 w)))
 (= ?x7592 ?x5967))))
 ))
 (let (($x2637 (forall ((n (_ BitVec 6)) )(let ((?x3215 (stack_s x_SLOAD_0 w_3 w_4 0 n)))
 (let ((?x2587 (stack_s x_SLOAD_0 w_3 w_4 1 n)))
 (let ((?x72 (sc_s 0)))
 (let (($x2856 (bvsle ?x72 n)))
 (or $x2856 (= ?x2587 ?x3215)))))))
 ))
 (let ((?x154 (sc_s 1)))
 (let (($x9590 (= ?x154 (bvadd (_ bv1 6) ?x72))))
 (let (($x8567 (forall ((w (_ BitVec 256)) )(let ((?x10605 (ite (= w (stack_s x_SLOAD_0 w_3 w_4 4 (bvadd (_ bv63 6) (sc_s 4)))) x_SLOAD_0 (_ bv0 256))))
 (let ((?x5967 (storage_s x_SLOAD_0 w_3 w_4 0 w)))
 (= ?x5967 ?x10605))))
 ))
 (let (($x2187 (= ?x4083 0)))
 (let (($x5393 (not $x57)))
 (let (($x1603 (= ?x72 (_ bv0 6))))
 (and $x1603 $x5393 $x2187 $x8567 (= (stack_s x_SLOAD_0 w_3 w_4 1 ?x72) w_3) (= (used_gas_s x_SLOAD_0 w_3 w_4 1) (+ 3 ?x4083)) $x9590 $x2637 $x10058 $x1756 (= (stack_s x_SLOAD_0 w_3 w_4 2 ?x154) w_4) (= ?x8222 (+ 3 (used_gas_s x_SLOAD_0 w_3 w_4 1))) $x7089 $x8139 $x1760 $x5077 (= (stack_s x_SLOAD_0 w_3 w_4 3 ?x2272) w_3) (= ?x422 (+ 3 ?x8222)) $x9622 $x10398 $x7687 $x11481 (= ?x4158 (stack_s x_SLOAD_0 w_3 w_4 3 (bvadd (_ bv62 6) ?x3851))) $x5706 (= ?x5339 (+ 3 ?x422)) $x3035 $x4327 $x2624 $x5977 (= ?x1270 (storage_s x_SLOAD_0 w_3 w_4 4 ?x4158)) (= ?x6621 (+ 200 ?x5339)) $x8512 $x3230 $x3432 $x10092 $x5619 (= (stack_s x_SLOAD_0 w_3 w_4 6 (bvadd (_ bv62 6) ?x9114)) ?x1270) $x111 $x455 $x6121 $x9133 $x5799 (= (stack_t x_SLOAD_0 w_3 w_4 1 ?x63) w_3) (= (used_gas_t x_SLOAD_0 w_3 w_4 1) (+ 3 ?x11155)) $x6587 $x7881 $x11233 $x11249 (= (stack_t x_SLOAD_0 w_3 w_4 2 ?x9666) w_4) (= ?x7597 (+ 3 (used_gas_t x_SLOAD_0 w_3 w_4 1))) $x2990 $x9896 $x11064 $x6840 (= ?x919 ?x1063) (= ?x4362 (+ 200 ?x7597)) $x7578 $x470 $x8321 $x914 (= (stack_t x_SLOAD_0 w_3 w_4 4 (bvadd (_ bv63 6) ?x7495)) ?x10919) (= (stack_t x_SLOAD_0 w_3 w_4 4 ?x90) ?x10919) (= (stack_t x_SLOAD_0 w_3 w_4 4 ?x7779) ?x919) $x4743 $x4149 $x11798 $x2106 $x6557 $x73 $x7449 $x58 $x4493 $x8226 (not (and $x7396 $x9340 $x7607 $x6277))))))))))))))))))))))))))))))))))))))))))))))))))))))))))))))))))))))))))))))))))))))))))))))))))))))))))
 )
(check-sat)
(get-proof)
